Sr2RuO4
1.0
        5.4607028165         0.0000000000         0.0000000000
        0.0000000000         5.4607028165         0.0000000000
        0.0000000000         0.0000000000        40.0000000000
   Sr   Ru    O
    4    2    8
Direct
0.5 0.0 0.546783912325742
0.5 0.0 0.453205879159541
0.0 0.5 0.546783912325742
0.0 0.5 0.453205879159541
0.0 0.0 0.5
0.5 0.5 0.5
0.2108913837399423 0.28910861626005774 0.5
0.28910861626005774 0.7891086162600577 0.5
0.0 0.0 0.448028090062839
0.0 0.0 0.551961732060244
0.7108913837399423 0.2108913837399423 0.5
0.7891086162600577 0.7108913837399423 0.5
0.5 0.5 0.448028090062839
0.5 0.5 0.551961732060244
